p cnf 13 30
8 -13 12 0
-6 8 11 0
-12 -2 9 0
-2 -4 9 0
-3 -6 -3 0
-3 -7 7 0
13 -9 3 0
10 1 6 0
-2 4 -7 0
-7 -11 2 0
-9 -1 -3 0
-4 12 7 0
-10 5 -12 0
-12 -2 -4 0
-11 5 4 0
9 -8 9 0
-3 9 3 0
4 -12 -12 0
-12 -3 -3 0
5 -2 7 0
5 -1 -11 0
-10 5 1 0
2 9 6 0
-9 12 -4 0
-4 3 2 0
5 9 -8 0
13 -6 -5 0
-11 -6 2 0
6 -1 9 0
3 12 12 0
